Geometry = GenFormat {
    <<< geo.gen
}

#Driver = ConjugateGRadient {
#  MaxForceComponent = 1.0E-8 # very tight tollerance.
#}

Driver = SecondDerivatives {}

Hamiltonian = DFTB {
    SCC = Yes
    SCCTolerance = 1.0E-10 # abnormally tight tollerance used for accuracy
    MaxAngularMomentum = {
        C = "p"
        H = "s"
    }
    Charge = 0.0
    Filling = Fermi {
        Temperature [Kelvin] = 273.15
    }
    SlaterKosterFiles = Type2FileNames {
        Separator = "-"
        Suffix = ".skf"
    }
}

Options = {
    WriteAutotestTag = Yes
}

ParserOptions = {
    ParserVersion = 3
}
