# The choosen periodic boundary condition is artificial and serves only the
# testing of the dispersion and damped H interaction in periodic systems.
Geometry = GenFormat {
32 S
H C O
1   1   4.1825000000E+00   3.7727000000E+00   5.0606000000E+00
2   1   8.9744000000E+00   1.3460000000E-01   2.2044000000E+00
3   1   1.0761000000E+01   2.0882000000E+00   5.0606000000E+00
4   1   2.3959000000E+00   1.8190000000E+00   2.2044000000E+00
5   1   4.9238000000E+00   1.8731000000E+00  -2.8375000000E+00
6   1   8.2332000000E+00  -1.8731000000E+00   5.7311000000E+00
7   1   1.1502200000E+01   3.9878000000E+00   2.8749000000E+00
8   1   6.1840000000E+00   1.7700000000E+00   1.6099000000E+00
9   1   6.9730000000E+00  -1.7700000000E+00   4.4661000000E+00
10   1   1.2762500000E+01   7.9981000000E+00   1.6099000000E+00
11   1   3.9450000000E-01  -1.8370000000E-01   4.4661000000E+00
12   1   5.9211000000E+00   3.3064000000E+00   2.4295000000E+00
13   1   7.2359000000E+00   6.0090000000E-01   5.2856000000E+00
14   1   1.2499600000E+01   2.5545000000E+00   2.4295000000E+00
15   1   6.5740000000E-01   5.2600000000E+00  -4.2670000000E-01
16   1   1.6547000000E+00  -8.0500000000E-02   5.7311000000E+00
17   2   4.4066000000E+00   2.7814000000E+00   1.0069000000E+00
18   2   8.7504000000E+00   1.1259000000E+00   3.8631000000E+00
19   2   1.0985000000E+01   3.0795000000E+00   1.0069000000E+00
20   2   2.1719000000E+00   8.2770000000E-01   3.8631000000E+00
21   2   5.4120000000E+00   2.4091000000E+00   2.0573000000E+00
22   2   7.7450000000E+00   1.4981000000E+00   4.9135000000E+00
23   2   1.1990500000E+01   3.4517000000E+00   2.0573000000E+00
24   2   1.1665000000E+00   4.5550000000E-01   4.9135000000E+00
25   3   4.9066000000E+00   3.5039000000E+00   1.8700000000E-02
26   3   8.2504000000E+00   4.0330000000E-01   2.8749000000E+00
27   3   1.1485100000E+01   2.3569000000E+00   1.8700000000E-02
28   3   1.6719000000E+00   1.5503000000E+00   2.8749000000E+00
29   3   3.2124000000E+00   2.4510000000E+00   1.0260000000E+00
30   3   9.9445000000E+00   1.4562000000E+00   3.8822000000E+00
31   3   9.7909000000E+00   3.4099000000E+00   1.0260000000E+00
32   3   3.3661000000E+00   4.9740000000E-01   3.8822000000E+00
0.0000000 0.000000 0.0000000
13.1569599999999998  0.0000000000000000  0.0000000000000000
0.0000000000000000  3.9072390000000001  0.0000000000000000
0.0000000000000000  0.0000000000000000  5.7123771999999997
}
Driver = GDIIS {
  MaxSteps = 40
  MovedAtoms = 1:-1
  MaxForceComponent = 1e-4
  AppendGeometries = Yes
}

Hamiltonian = DFTB {
  SCC = Yes
  SCCTolerance = 1e-5
  MaxSCCIterations = 100
  Filling = Fermi {
    Temperature [K] = 300
  }
  KPointsAndWeights = SupercellFolding {
2   0   0
0   2   0
0   0   2
0.5 0.5 0.5
  }
  MaxAngularMomentum {
    O = "p"
    H = "s"
    C = "p"
  }
  SlaterKosterFiles = Type2FileNames {
    Separator = "-"
    Suffix = ".skf"
  }
  Dispersion = dDMC {}
}

Options {
  WriteAutotestTag = Yes
}

ParserOptions {
  ParserVersion = 5
}
